p cnf 170 480
c weights 1.0 1.0 2.718281828459045 0.36787944117144233 2.718281828459045 0.36787944117144233 2.718281828459045 0.36787944117144233 2.718281828459045 0.36787944117144233 1.0 1.0 2.718281828459045 0.36787944117144233 2.718281828459045 0.36787944117144233 2.718281828459045 0.36787944117144233 2.718281828459045 0.36787944117144233 2.718281828459045 0.36787944117144233 1.0 1.0 2.718281828459045 0.36787944117144233 2.718281828459045 0.36787944117144233 2.718281828459045 0.36787944117144233 2.718281828459045 0.36787944117144233 2.718281828459045 0.36787944117144233 2.718281828459045 0.36787944117144233 2.718281828459045 0.36787944117144233 2.718281828459045 0.36787944117144233 1.0 1.0 2.718281828459045 0.36787944117144233 2.718281828459045 0.36787944117144233 2.718281828459045 0.36787944117144233 2.718281828459045 0.36787944117144233 2.718281828459045 0.36787944117144233 2.718281828459045 0.36787944117144233 1.0 1.0 2.718281828459045 0.36787944117144233 2.718281828459045 0.36787944117144233 2.718281828459045 0.36787944117144233 2.718281828459045 0.36787944117144233 2.718281828459045 0.36787944117144233 2.718281828459045 0.36787944117144233 1.0 1.0 2.718281828459045 0.36787944117144233 2.718281828459045 0.36787944117144233 2.718281828459045 0.36787944117144233 2.718281828459045 0.36787944117144233 2.718281828459045 0.36787944117144233 1.0 1.0 2.718281828459045 0.36787944117144233 2.718281828459045 0.36787944117144233 2.718281828459045 0.36787944117144233 2.718281828459045 0.36787944117144233 1.0 1.0 2.718281828459045 0.36787944117144233 2.718281828459045 0.36787944117144233 2.718281828459045 0.36787944117144233 1.0 1.0 2.718281828459045 0.36787944117144233 2.718281828459045 0.36787944117144233 2.718281828459045 0.36787944117144233 2.718281828459045 0.36787944117144233 2.718281828459045 0.36787944117144233 2.718281828459045 0.36787944117144233 2.718281828459045 0.36787944117144233 1.0 1.0 2.718281828459045 0.36787944117144233 2.718281828459045 0.36787944117144233 2.718281828459045 0.36787944117144233 1.0 1.0 2.718281828459045 0.36787944117144233 2.718281828459045 0.36787944117144233 2.718281828459045 0.36787944117144233 1.0 1.0 2.718281828459045 0.36787944117144233 2.718281828459045 0.36787944117144233 2.718281828459045 0.36787944117144233 1.0 1.0 2.718281828459045 0.36787944117144233 2.718281828459045 0.36787944117144233 2.718281828459045 0.36787944117144233 1.0 1.0 2.718281828459045 0.36787944117144233 2.718281828459045 0.36787944117144233 1.0 1.0 2.718281828459045 0.36787944117144233 2.718281828459045 0.36787944117144233 2.718281828459045 0.36787944117144233 2.718281828459045 0.36787944117144233 2.718281828459045 0.36787944117144233 1.0 1.0 2.718281828459045 0.36787944117144233 2.718281828459045 0.36787944117144233 2.718281828459045 0.36787944117144233 2.718281828459045 0.36787944117144233 1.0 1.0 2.718281828459045 0.36787944117144233 2.718281828459045 0.36787944117144233 2.718281828459045 0.36787944117144233 2.718281828459045 0.36787944117144233 1.0 1.0 2.718281828459045 0.36787944117144233 2.718281828459045 0.36787944117144233 2.718281828459045 0.36787944117144233 2.718281828459045 0.36787944117144233 1.0 1.0 2.718281828459045 0.36787944117144233 2.718281828459045 0.36787944117144233 2.718281828459045 0.36787944117144233 1.0 1.0 2.718281828459045 0.36787944117144233 2.718281828459045 0.36787944117144233 1.0 1.0 2.718281828459045 0.36787944117144233 2.718281828459045 0.36787944117144233 2.718281828459045 0.36787944117144233 2.718281828459045 0.36787944117144233 1.0 1.0 2.718281828459045 0.36787944117144233 2.718281828459045 0.36787944117144233 1.0 1.0 2.718281828459045 0.36787944117144233 2.718281828459045 0.36787944117144233 2.718281828459045 0.36787944117144233 1.0 1.0 2.718281828459045 0.36787944117144233 1.0 1.0 2.718281828459045 0.36787944117144233 2.718281828459045 0.36787944117144233 2.718281828459045 0.36787944117144233 1.0 1.0 1.0 1.0 2.718281828459045 0.36787944117144233 2.718281828459045 0.36787944117144233 2.718281828459045 0.36787944117144233 2.718281828459045 0.36787944117144233 1.0 1.0 1.0 1.0 2.718281828459045 0.36787944117144233 1.0 1.0 2.718281828459045 0.36787944117144233 2.718281828459045 0.36787944117144233 1.0 1.0 2.718281828459045 0.36787944117144233 1.0 1.0 2.718281828459045 0.36787944117144233 2.718281828459045 0.36787944117144233 2.718281828459045 0.36787944117144233 2.718281828459045 0.36787944117144233 1.0 1.0 2.718281828459045 0.36787944117144233 2.718281828459045 0.36787944117144233 1.0 1.0 1.0 1.0 2.718281828459045 0.36787944117144233 1.0 1.0 1.0 1.0 2.718281828459045 0.36787944117144233 1.0 1.0 2.718281828459045 0.36787944117144233 1.0 1.0 1.0 1.0 2.718281828459045 0.36787944117144233 1.0 1.0 1.0 1.0 1.0 1.0 2.718281828459045 0.36787944117144233 2.718281828459045 0.36787944117144233 1.0 1.0 2.718281828459045 0.36787944117144233 1.0 1.0 1.0 1.0 2.718281828459045 0.36787944117144233 1.0 1.0 1.0 1.0 2.718281828459045 0.36787944117144233 1.0 1.0 1.0 1.0
2 1 62 0
2 -1 -62 0
-2 1 -62 0
-2 -1 62 0
3 1 102 0
3 -1 -102 0
-3 1 -102 0
-3 -1 102 0
4 1 105 0
4 -1 -105 0
-4 1 -105 0
-4 -1 105 0
5 1 142 0
5 -1 -142 0
-5 1 -142 0
-5 -1 142 0
7 6 105 0
7 -6 -105 0
-7 6 -105 0
-7 -6 105 0
8 6 153 0
8 -6 -153 0
-8 6 -153 0
-8 -6 153 0
9 6 154 0
9 -6 -154 0
-9 6 -154 0
-9 -6 154 0
10 6 161 0
10 -6 -161 0
-10 6 -161 0
-10 -6 161 0
11 6 164 0
11 -6 -164 0
-11 6 -164 0
-11 -6 164 0
13 12 21 0
13 -12 -21 0
-13 12 -21 0
-13 -12 21 0
14 12 28 0
14 -12 -28 0
-14 12 -28 0
-14 -12 28 0
15 12 62 0
15 -12 -62 0
-15 12 -62 0
-15 -12 62 0
16 12 66 0
16 -12 -66 0
-16 12 -66 0
-16 -12 66 0
17 12 117 0
17 -12 -117 0
-17 12 -117 0
-17 -12 117 0
18 12 119 0
18 -12 -119 0
-18 12 -119 0
-18 -12 119 0
19 12 130 0
19 -12 -130 0
-19 12 -130 0
-19 -12 130 0
20 12 166 0
20 -12 -166 0
-20 12 -166 0
-20 -12 166 0
22 21 50 0
22 -21 -50 0
-22 21 -50 0
-22 -21 50 0
23 21 58 0
23 -21 -58 0
-23 21 -58 0
-23 -21 58 0
24 21 102 0
24 -21 -102 0
-24 21 -102 0
-24 -21 102 0
25 21 142 0
25 -21 -142 0
-25 21 -142 0
-25 -21 142 0
26 21 145 0
26 -21 -145 0
-26 21 -145 0
-26 -21 145 0
27 21 163 0
27 -21 -163 0
-27 21 -163 0
-27 -21 163 0
29 28 35 0
29 -28 -35 0
-29 28 -35 0
-29 -28 35 0
30 28 105 0
30 -28 -105 0
-30 28 -105 0
-30 -28 105 0
31 28 113 0
31 -28 -113 0
-31 28 -113 0
-31 -28 113 0
32 28 142 0
32 -28 -142 0
-32 28 -142 0
-32 -28 142 0
33 28 145 0
33 -28 -145 0
-33 28 -145 0
-33 -28 145 0
34 28 157 0
34 -28 -157 0
-34 28 -157 0
-34 -28 157 0
36 35 105 0
36 -35 -105 0
-36 35 -105 0
-36 -35 105 0
37 35 129 0
37 -35 -129 0
-37 35 -129 0
-37 -35 129 0
38 35 156 0
38 -35 -156 0
-38 35 -156 0
-38 -35 156 0
39 35 167 0
39 -35 -167 0
-39 35 -167 0
-39 -35 167 0
40 35 169 0
40 -35 -169 0
-40 35 -169 0
-40 -35 169 0
42 41 88 0
42 -41 -88 0
-42 41 -88 0
-42 -41 88 0
43 41 129 0
43 -41 -129 0
-43 41 -129 0
-43 -41 129 0
44 41 146 0
44 -41 -146 0
-44 41 -146 0
-44 -41 146 0
45 41 158 0
45 -41 -158 0
-45 41 -158 0
-45 -41 158 0
47 46 88 0
47 -46 -88 0
-47 46 -88 0
-47 -46 88 0
48 46 117 0
48 -46 -117 0
-48 46 -117 0
-48 -46 117 0
49 46 132 0
49 -46 -132 0
-49 46 -132 0
-49 -46 132 0
51 50 66 0
51 -50 -66 0
-51 50 -66 0
-51 -50 66 0
52 50 70 0
52 -50 -70 0
-52 50 -70 0
-52 -50 70 0
53 50 117 0
53 -50 -117 0
-53 50 -117 0
-53 -50 117 0
54 50 124 0
54 -50 -124 0
-54 50 -124 0
-54 -50 124 0
55 50 137 0
55 -50 -137 0
-55 50 -137 0
-55 -50 137 0
56 50 149 0
56 -50 -149 0
-56 50 -149 0
-56 -50 149 0
57 50 166 0
57 -50 -166 0
-57 50 -166 0
-57 -50 166 0
59 58 93 0
59 -58 -93 0
-59 58 -93 0
-59 -58 93 0
60 58 137 0
60 -58 -137 0
-60 58 -137 0
-60 -58 137 0
61 58 153 0
61 -58 -153 0
-61 58 -153 0
-61 -58 153 0
63 62 88 0
63 -62 -88 0
-63 62 -88 0
-63 -62 88 0
64 62 117 0
64 -62 -117 0
-64 62 -117 0
-64 -62 117 0
65 62 154 0
65 -62 -154 0
-65 62 -154 0
-65 -62 154 0
67 66 113 0
67 -66 -113 0
-67 66 -113 0
-67 -66 113 0
68 66 130 0
68 -66 -130 0
-68 66 -130 0
-68 -66 130 0
69 66 157 0
69 -66 -157 0
-69 66 -157 0
-69 -66 157 0
71 70 117 0
71 -70 -117 0
-71 70 -117 0
-71 -70 117 0
72 70 166 0
72 -70 -166 0
-72 70 -166 0
-72 -70 166 0
73 70 167 0
73 -70 -167 0
-73 70 -167 0
-73 -70 167 0
75 74 129 0
75 -74 -129 0
-75 74 -129 0
-75 -74 129 0
76 74 149 0
76 -74 -149 0
-76 74 -149 0
-76 -74 149 0
78 77 98 0
78 -77 -98 0
-78 77 -98 0
-78 -77 98 0
79 77 105 0
79 -77 -105 0
-79 77 -105 0
-79 -77 105 0
80 77 129 0
80 -77 -129 0
-80 77 -129 0
-80 -77 129 0
81 77 142 0
81 -77 -142 0
-81 77 -142 0
-81 -77 142 0
82 77 154 0
82 -77 -154 0
-82 77 -154 0
-82 -77 154 0
84 83 142 0
84 -83 -142 0
-84 83 -142 0
-84 -83 142 0
85 83 148 0
85 -83 -148 0
-85 83 -148 0
-85 -83 148 0
86 83 167 0
86 -83 -167 0
-86 83 -167 0
-86 -83 167 0
87 83 169 0
87 -83 -169 0
-87 83 -169 0
-87 -83 169 0
89 88 93 0
89 -88 -93 0
-89 88 -93 0
-89 -88 93 0
90 88 113 0
90 -88 -113 0
-90 88 -113 0
-90 -88 113 0
91 88 151 0
91 -88 -151 0
-91 88 -151 0
-91 -88 151 0
92 88 167 0
92 -88 -167 0
-92 88 -167 0
-92 -88 167 0
94 93 124 0
94 -93 -124 0
-94 93 -124 0
-94 -93 124 0
95 93 154 0
95 -93 -154 0
-95 93 -154 0
-95 -93 154 0
96 93 158 0
96 -93 -158 0
-96 93 -158 0
-96 -93 158 0
97 93 167 0
97 -93 -167 0
-97 93 -167 0
-97 -93 167 0
99 98 149 0
99 -98 -149 0
-99 98 -149 0
-99 -98 149 0
100 98 164 0
100 -98 -164 0
-100 98 -164 0
-100 -98 164 0
101 98 169 0
101 -98 -169 0
-101 98 -169 0
-101 -98 169 0
103 102 137 0
103 -102 -137 0
-103 102 -137 0
-103 -102 137 0
104 102 167 0
104 -102 -167 0
-104 102 -167 0
-104 -102 167 0
106 105 132 0
106 -105 -132 0
-106 105 -132 0
-106 -105 132 0
107 105 161 0
107 -105 -161 0
-107 105 -161 0
-107 -105 161 0
108 105 164 0
108 -105 -164 0
-108 105 -164 0
-108 -105 164 0
109 105 166 0
109 -105 -166 0
-109 105 -166 0
-109 -105 166 0
111 110 124 0
111 -110 -124 0
-111 110 -124 0
-111 -110 124 0
112 110 151 0
112 -110 -151 0
-112 110 -151 0
-112 -110 151 0
114 113 137 0
114 -113 -137 0
-114 113 -137 0
-114 -113 137 0
115 113 142 0
115 -113 -142 0
-115 113 -142 0
-115 -113 142 0
116 113 148 0
116 -113 -148 0
-116 113 -148 0
-116 -113 148 0
118 117 164 0
118 -117 -164 0
-118 117 -164 0
-118 -117 164 0
120 119 145 0
120 -119 -145 0
-120 119 -145 0
-120 -119 145 0
121 119 154 0
121 -119 -154 0
-121 119 -154 0
-121 -119 154 0
122 119 169 0
122 -119 -169 0
-122 119 -169 0
-122 -119 169 0
125 124 129 0
125 -124 -129 0
-125 124 -129 0
-125 -124 129 0
126 124 142 0
126 -124 -142 0
-126 124 -142 0
-126 -124 142 0
127 124 149 0
127 -124 -149 0
-127 124 -149 0
-127 -124 149 0
128 124 156 0
128 -124 -156 0
-128 124 -156 0
-128 -124 156 0
131 130 137 0
131 -130 -137 0
-131 130 -137 0
-131 -130 137 0
133 132 156 0
133 -132 -156 0
-133 132 -156 0
-133 -132 156 0
134 132 157 0
134 -132 -157 0
-134 132 -157 0
-134 -132 157 0
136 135 148 0
136 -135 -148 0
-136 135 -148 0
-136 -135 148 0
138 137 142 0
138 -137 -142 0
-138 137 -142 0
-138 -137 142 0
139 137 149 0
139 -137 -149 0
-139 137 -149 0
-139 -137 149 0
140 137 164 0
140 -137 -164 0
-140 137 -164 0
-140 -137 164 0
141 137 167 0
141 -137 -167 0
-141 137 -167 0
-141 -137 167 0
143 142 146 0
143 -142 -146 0
-143 142 -146 0
-143 -142 146 0
144 142 148 0
144 -142 -148 0
-144 142 -148 0
-144 -142 148 0
147 146 153 0
147 -146 -153 0
-147 146 -153 0
-147 -146 153 0
150 149 161 0
150 -149 -161 0
-150 149 -161 0
-150 -149 161 0
152 151 163 0
152 -151 -163 0
-152 151 -163 0
-152 -151 163 0
155 154 166 0
155 -154 -166 0
-155 154 -166 0
-155 -154 166 0
159 158 166 0
159 -158 -166 0
-159 158 -166 0
-159 -158 166 0
160 158 169 0
160 -158 -169 0
-160 158 -169 0
-160 -158 169 0
162 161 163 0
162 -161 -163 0
-162 161 -163 0
-162 -161 163 0
165 164 169 0
165 -164 -169 0
-165 164 -169 0
-165 -164 169 0
168 167 169 0
168 -167 -169 0
-168 167 -169 0
-168 -167 169 0
